
Starting CP-SAT solver v9.15.6755
Parameters: random_seed: 2026073212 max_time_in_seconds: 13570.012081793 log_search_progress: true cp_model_presolve: true linearization_level: 2 num_search_workers: 4 cp_model_probing_level: 2 symmetry_level: 2

Initial satisfaction model '': (model_fingerprint: 0x8c6ecbc598f1760d)
#Variables: 724 (608 primary variables)
  - 724 Booleans in [0,1]
#kBoolAnd: 110 (#enforced: 110) (#literals: 330)
#kBoolOr: 110 (#enforced: 110) (#literals: 220)
#kExactlyOne: 87 (#literals: 261)
#kLinear1: 32 (#enforced: 6)
#kLinear2: 336 (#enforced: 336) (#complex_domain: 110)
#kLinear3: 1'600 (#enforced: 6)
#kLinearN: 1'132 (#enforced: 243) (#terms: 9'111)

Starting presolve at 0.00s
  6.71e-04s  0.00e+00d  [DetectDominanceRelations] 
  9.00e-03s  0.00e+00d  [PresolveToFixPoint] #num_loops=3 #num_dual_strengthening=1 
  3.95e-05s  0.00e+00d  [ExtractEncodingFromLinear] #potential_supersets=87 
  3.09e-04s  0.00e+00d  [DetectDuplicateColumns] 
  1.03e-04s  0.00e+00d  [DetectDuplicateConstraints] #duplicates=5 
[Symmetry] Graph for symmetry has 4'872 nodes and 15'736 arcs.
[Symmetry] Symmetry computation done. time: 0.00132271 dtime: 0.0018065
[SAT presolve] num removable Booleans: 220 / 628
[SAT presolve] num trivial clauses: 0
[SAT presolve] [0s] clauses:2'742 literals:7'450 vars:507 one_side_vars:67 simple_definition:1 singleton_clauses:0
[SAT presolve] [0.000254795s] clauses:2'741 literals:7'443 vars:507 one_side_vars:67 simple_definition:1 singleton_clauses:0
[SAT presolve] [0.000583819s] clauses:2'509 literals:7'108 vars:395 one_side_vars:67 simple_definition:2 singleton_clauses:0
  1.38e-04s  0.00e+00d  [DetectDuplicateConstraintsWithDifferentEnforcements] 
  6.28e-03s  3.39e-03d  [Probe] #probed=1'306 #fixed_bools=12 #equiv=9 #new_binary_clauses=1'285 
  7.48e-04s  5.81e-04d  [MaxClique] Merged 703 constraints with 1'544 literals into 623 constraints with 1'410 literals
  8.71e-04s  0.00e+00d  [DetectDominanceRelations] 
  3.25e-03s  0.00e+00d  [PresolveToFixPoint] #num_loops=1 #num_dual_strengthening=1 
  1.23e-03s  0.00e+00d  [ProcessAtMostOneAndLinear] 
  1.31e-04s  0.00e+00d  [DetectDuplicateConstraints] #duplicates=6 
  9.73e-05s  0.00e+00d  [DetectDuplicateConstraintsWithDifferentEnforcements] 
  2.86e-03s  9.37e-05d  [DetectDominatedLinearConstraints] #relevant_constraints=827 #num_inclusions=472 #num_redundant=7 
  1.28e-04s  0.00e+00d  [DetectDifferentVariables] 
  8.07e-04s  8.92e-05d  [ProcessSetPPC] #relevant_constraints=3'237 #num_inclusions=286 
  3.18e-04s  3.53e-05d  [TransformClausesToExactlyOne] #num_amos=637 #num_clauses=1'801 #num_transformed=3 #num_checked=1'801 
  4.30e-05s  0.00e+00d  [DetectEncodedComplexDomains] 
  3.55e-05s  0.00e+00d  [FindAlmostIdenticalLinearConstraints] 
  9.54e-04s  1.39e-03d  [FindBigAtMostOneAndLinearOverlap] 
  1.42e-03s  1.16e-03d  [FindBigVerticalLinearOverlap] #blocks=3 #saved_nz=120 
  3.75e-04s  6.37e-04d  [FindBigHorizontalLinearOverlap] #linears=464 
  3.55e-04s  2.82e-05d  [MergeClauses] #num_collisions=2 #num_merges=2 #num_saved_literals=4 
  6.58e-04s  0.00e+00d  [DetectDominanceRelations] 
  3.08e-03s  0.00e+00d  [PresolveToFixPoint] #num_loops=2 #num_dual_strengthening=1 
  6.31e-04s  0.00e+00d  [DetectDominanceRelations] 
  2.84e-03s  0.00e+00d  [PresolveToFixPoint] #num_loops=1 #num_dual_strengthening=1 
  2.62e-04s  0.00e+00d  [DetectDuplicateColumns] 
  1.07e-04s  0.00e+00d  [DetectDuplicateConstraints] 
[Symmetry] Graph for symmetry has 4'632 nodes and 14'338 arcs.
[Symmetry] Symmetry computation done. time: 0.00101879 dtime: 0.00142634
[SAT presolve] num removable Booleans: 104 / 504
[SAT presolve] num trivial clauses: 0
[SAT presolve] [0s] clauses:2'422 literals:6'904 vars:478 one_side_vars:151 simple_definition:17 singleton_clauses:0
[SAT presolve] [0.000235219s] clauses:2'419 literals:6'744 vars:478 one_side_vars:152 simple_definition:88 singleton_clauses:0
[SAT presolve] [0.000384277s] clauses:2'214 literals:6'264 vars:473 one_side_vars:194 simple_definition:65 singleton_clauses:0
  1.94e-04s  0.00e+00d  [DetectDuplicateConstraintsWithDifferentEnforcements] 
  6.47e-03s  2.16e-03d  [Probe] #probed=1'312 #new_binary_clauses=852 
  4.93e-04s  3.85e-04d  [MaxClique] Merged 532 constraints with 1'165 literals into 517 constraints with 1'156 literals
  9.00e-04s  0.00e+00d  [DetectDominanceRelations] 
  3.22e-03s  0.00e+00d  [PresolveToFixPoint] #num_loops=1 #num_dual_strengthening=1 
  1.16e-03s  0.00e+00d  [ProcessAtMostOneAndLinear] 
  1.28e-04s  0.00e+00d  [DetectDuplicateConstraints] 
  1.11e-04s  0.00e+00d  [DetectDuplicateConstraintsWithDifferentEnforcements] 
  1.79e-03s  7.03e-05d  [DetectDominatedLinearConstraints] #relevant_constraints=814 #num_inclusions=374 
  1.36e-04s  0.00e+00d  [DetectDifferentVariables] 
  7.74e-04s  7.55e-05d  [ProcessSetPPC] #relevant_constraints=3'110 #num_inclusions=105 
  3.13e-04s  3.30e-05d  [TransformClausesToExactlyOne] #num_amos=517 #num_clauses=1'723 #num_checked=1'723 
  1.68e-04s  0.00e+00d  [DetectEncodedComplexDomains] 
  4.78e-05s  0.00e+00d  [FindAlmostIdenticalLinearConstraints] 
  8.58e-04s  1.19e-03d  [FindBigAtMostOneAndLinearOverlap] 
  1.31e-03s  1.06e-03d  [FindBigVerticalLinearOverlap] 
  3.98e-04s  6.37e-04d  [FindBigHorizontalLinearOverlap] #linears=464 
  3.70e-04s  2.64e-05d  [MergeClauses] #num_collisions=74 #num_merges=74 #num_saved_literals=183 
  9.01e-04s  0.00e+00d  [DetectDominanceRelations] 
  3.18e-03s  0.00e+00d  [PresolveToFixPoint] #num_loops=1 #num_dual_strengthening=1 
  8.82e-04s  0.00e+00d  [DetectDominanceRelations] 
  3.14e-03s  0.00e+00d  [PresolveToFixPoint] #num_loops=1 #num_dual_strengthening=1 
  1.77e-04s  0.00e+00d  [DetectDuplicateColumns] 
  1.22e-04s  0.00e+00d  [DetectDuplicateConstraints] 
[Symmetry] Graph for symmetry has 4'357 nodes and 13'367 arcs.
[Symmetry] Symmetry computation done. time: 0.00101934 dtime: 0.00132133
[SAT presolve] num removable Booleans: 99 / 499
[SAT presolve] num trivial clauses: 0
[SAT presolve] [0s] clauses:2'191 literals:6'214 vars:473 one_side_vars:194 simple_definition:65 singleton_clauses:0
[SAT presolve] [0.00020381s] clauses:2'191 literals:6'214 vars:473 one_side_vars:194 simple_definition:65 singleton_clauses:0
[SAT presolve] [0.000281575s] clauses:2'191 literals:6'214 vars:473 one_side_vars:194 simple_definition:65 singleton_clauses:0
  1.95e-04s  0.00e+00d  [DetectDuplicateConstraintsWithDifferentEnforcements] 
  6.15e-03s  2.15e-03d  [Probe] #probed=1'312 #new_binary_clauses=851 
  6.40e-04s  3.76e-04d  [MaxClique] Merged 513 constraints with 1'133 literals into 512 constraints with 1'132 literals
  9.03e-04s  0.00e+00d  [DetectDominanceRelations] 
  3.23e-03s  0.00e+00d  [PresolveToFixPoint] #num_loops=1 #num_dual_strengthening=1 
  1.18e-03s  0.00e+00d  [ProcessAtMostOneAndLinear] 
  1.49e-04s  0.00e+00d  [DetectDuplicateConstraints] 
  1.17e-04s  0.00e+00d  [DetectDuplicateConstraintsWithDifferentEnforcements] 
  1.81e-03s  7.03e-05d  [DetectDominatedLinearConstraints] #relevant_constraints=814 #num_inclusions=374 
  1.45e-04s  0.00e+00d  [DetectDifferentVariables] 
  7.73e-04s  7.53e-05d  [ProcessSetPPC] #relevant_constraints=3'107 #num_inclusions=100 
  3.16e-04s  3.30e-05d  [TransformClausesToExactlyOne] #num_amos=512 #num_clauses=1'725 #num_checked=1'725 
  1.59e-04s  0.00e+00d  [DetectEncodedComplexDomains] 
  6.24e-05s  9.00e-08d  [FindAlmostIdenticalLinearConstraints] #num_tested_pairs=1 
  8.72e-04s  1.19e-03d  [FindBigAtMostOneAndLinearOverlap] 
  1.28e-03s  1.03e-03d  [FindBigVerticalLinearOverlap] #blocks=1 #saved_nz=40 
  3.96e-04s  6.02e-04d  [FindBigHorizontalLinearOverlap] #linears=462 
  3.53e-04s  2.64e-05d  [MergeClauses] #num_collisions=75 #num_merges=75 #num_saved_literals=185 
  9.17e-04s  0.00e+00d  [DetectDominanceRelations] 
  3.32e-03s  0.00e+00d  [PresolveToFixPoint] #num_loops=2 #num_dual_strengthening=1 
  4.02e-05s  0.00e+00d  [MergeNoOverlap] 
  3.94e-05s  0.00e+00d  [MergeNoOverlap2D] 

Presolve summary:
  - 38 affine relations were detected.
  - rule 'TODO dual: only one blocking constraint?' was applied 863 times.
  - rule 'TODO linear inclusion: superset is equality' was applied 316 times.
  - rule 'affine: new relation' was applied 38 times.
  - rule 'at_most_one: removed literals' was applied 61 times.
  - rule 'at_most_one: size one' was applied 60 times.
  - rule 'at_most_one: transformed into max clique' was applied 3 times.
  - rule 'bool_or: implications' was applied 87 times.
  - rule 'bool_or: only one literal' was applied 12 times.
  - rule 'bool_or: removed enforcement literal' was applied 589 times.
  - rule 'clauses: transformed into exactly one' was applied 3 times.
  - rule 'deductions: 880 stored' was applied 1 time.
  - rule 'duplicate: merged rhs of linear constraint' was applied 10 times.
  - rule 'duplicate: removed constraint' was applied 11 times.
  - rule 'enforcement: false literal' was applied 33 times.
  - rule 'enforcement: true literal' was applied 8 times.
  - rule 'exactly_one: removed literals' was applied 31 times.
  - rule 'exactly_one: satisfied' was applied 3 times.
  - rule 'exactly_one: singleton' was applied 2 times.
  - rule 'exactly_one: size two' was applied 29 times.
  - rule 'exactly_one: x and not(x)' was applied 6 times.
  - rule 'incompatible linear: add implication' was applied 129 times.
  - rule 'linear + amo: empty after processing' was applied 6 times.
  - rule 'linear + amo: extracted enforcement literal' was applied 58 times.
  - rule 'linear + amo: trivial linear constraint' was applied 1 time.
  - rule 'linear inclusion: redundant containing constraint' was applied 3 times.
  - rule 'linear inclusion: redundant included constraint' was applied 3 times.
  - rule 'linear inclusion: sparsify superset' was applied 1 time.
  - rule 'linear matrix: common vertical rectangle' was applied 4 times.
  - rule 'linear1: x in domain' was applied 26 times.
  - rule 'linear2: convert ax + by != cte to clauses' was applied 260 times.
  - rule 'linear2: convert implied ax + by == cte to clauses' was applied 122 times.
  - rule 'linear2: implied ax + by = cte has only one solution' was applied 9 times.
  - rule 'linear: always true' was applied 418 times.
  - rule 'linear: coefficient strengthening by increasing it' was applied 2 times.
  - rule 'linear: empty' was applied 1 time.
  - rule 'linear: extracted at most one (max)' was applied 1 time.
  - rule 'linear: fixed or dup variables' was applied 879 times.
  - rule 'linear: negative clause' was applied 1'299 times.
  - rule 'linear: negative reified and' was applied 78 times.
  - rule 'linear: never in domain' was applied 6 times.
  - rule 'linear: positive at most one' was applied 34 times.
  - rule 'linear: reduced variable domains' was applied 5 times.
  - rule 'linear: remapped using affine relations' was applied 22 times.
  - rule 'new_bool: integer encoding' was applied 12 times.
  - rule 'presolve: 77 unused variables removed.' was applied 1 time.
  - rule 'presolve: iteration' was applied 3 times.
  - rule 'probing: bool_or reduced to implication' was applied 45 times.
  - rule 'probing: simplified clauses' was applied 6 times.
  - rule 'setppc: bool_or in at_most_one' was applied 10 times.
  - rule 'setppc: removed dominated constraints' was applied 89 times.
  - rule 'variables: add encoding constraint' was applied 12 times.

Presolved satisfaction model '': (model_fingerprint: 0x1cb010733a78a856)
#Variables: 506 (437 primary variables)
  - 502 Booleans in [0,1]
  - 4 in [0,2]
#kAtMostOne: 48 (#literals: 204)
#kBoolAnd: 276 (#enforced: 276) (#literals: 743)
#kBoolAndClauses: 75 (#enforced: 75 #multi: 75) (#literals: 335)
#kBoolOr: 1'583 (#literals: 4'786)
#kExactlyOne: 56 (#literals: 212)
#kLinear1: 24 (#enforced: 24)
#kLinearN: 812 (#enforced: 124) (#terms: 5'680)
[Symmetry] Graph for symmetry has 4'144 nodes and 13'363 arcs.
[Symmetry] Symmetry computation done. time: 0.000837722 dtime: 0.00133201

Preloading model.
#Model   0.10s var:506/506 constraints:2874/2874

Starting search at 0.10s with 4 workers.
3 full problem subsolvers: [default_lp, max_lp, no_lp]
1 first solution subsolver: [fj]
2 interleaved subsolvers: [feasibility_pump, rins/rens]
2 helper subsolvers: [neighborhood_helper, synchronization_agent]

#Model 265.25s var:505/506 constraints:2859/2874
#Model 1452.09s var:504/506 constraints:2843/2874
#Model 2510.96s var:503/506 constraints:2843/2874
#Model 3127.11s var:502/506 constraints:2841/2874
#Model 5274.71s var:501/506 constraints:2823/2874
#Model 5455.99s var:500/506 constraints:2805/2874
#Model 5458.62s var:499/506 constraints:2782/2874
#Model 5507.63s var:498/506 constraints:2764/2874
#Model 5511.63s var:497/506 constraints:2747/2874
#Model 5518.48s var:494/506 constraints:2739/2874
#Model 5519.40s var:493/506 constraints:2725/2874
#Model 5519.84s var:492/506 constraints:2706/2874
#Model 5524.75s var:491/506 constraints:2690/2874
#Model 5530.12s var:490/506 constraints:2674/2874
#Model 5531.31s var:470/506 constraints:2432/2874
#Model 5531.49s var:469/506 constraints:2417/2874
#Done  5531.50s no_lp

Task timing                   n [     min,      max]      avg      dev     time         n [     min,      max]      avg      dev    dtime
        'default_lp':         1 [   1.54h,    1.54h]    1.54h   0.00ns    1.54h         2 [  2.34ms,    1.45h]   43.63m   43.63m    1.45h
  'feasibility_pump':     27413 [901.27us,  91.91ms]   1.66ms 654.94us   45.39s     27412 [277.76us,  75.03ms] 282.81us 451.49us    7.75s
                'fj':     19996 [ 99.39ms, 234.55ms] 137.10ms   9.27ms   45.69m     19996 [ 84.56ms, 100.16ms] 100.02ms 110.27us   33.33m
            'max_lp':         1 [   1.54h,    1.54h]    1.54h   0.00ns    1.54h         2 [ 90.71ms,    1.91h]   57.38m   57.38m    1.91h
             'no_lp':         1 [   1.54h,    1.54h]    1.54h   0.00ns    1.54h         2 [  2.06ms,    3.06h]    1.53h    1.53h    3.06h
         'rins/rens':     25597 [  1.43ms, 243.06ms] 107.09ms  39.60ms   45.69m     25594 [ 27.89us, 100.43ms]  67.76ms  37.57ms   28.90m

Search stats     Bools   Conflicts    Branches  Restarts  BacktrackToRoot   Backtrack     BoolPropag  IntegerPropag
  'default_lp':    502     501'884  11'490'740     2'440        1'735'142   2'690'064    127'728'061    150'590'130
      'max_lp':    502     314'909  13'607'089     1'456        2'009'167   2'836'915    151'471'908    182'975'666
       'no_lp':    502  38'763'288  49'542'529   124'654          759'760  39'216'684  3'274'455'130    846'813'079

SAT formula      Fixed  Equiv  Total  VarLeft  BinaryClauses  PermanentClauses  TemporaryClauses
  'default_lp':     15      5    502      482          3'344            34'766             2'910
      'max_lp':     14      5    502      483          3'368            36'113             2'100
       'no_lp':    101      5    502      396          3'342            65'115             2'623

SAT stats        ClassicMinim   LitRemoved  LitRemovedBinary   LitLearned  LitForgotten    Subsumed
  'default_lp':       441'791    5'564'610         2'722'903   15'038'480    10'147'492     182'458
      'max_lp':       274'751    3'603'264         1'670'399    7'868'917     5'044'907      97'693
       'no_lp':    35'280'164  593'137'347       193'396'121  889'824'688   686'512'872  11'532'811

Vivification       Clauses   Decisions  LitTrue  Subsumed  LitRemoved  DecisionReused  Conflicts
  'default_lp':  1'719'440  10'401'188        0    34'955     345'551         490'613      2'927
      'max_lp':  1'910'913  12'606'783        0    37'549     387'674         541'972      3'209
       'no_lp':    493'919   4'265'190        4    36'273     477'072         118'346      1'816

Clause deletion    at_true  l_and_not(l)  to_binary  sub_conflict  sub_extra  sub_decisions  sub_eager  sub_vivify  sub_probing  sub_inpro  blocked  eliminated   forgotten    promoted   conflicts
    'default_lp':   17'690             2         58       179'721      1'229          5'933      2'737      34'955       18'540     40'994        0           0     278'815     997'426     501'884
        'max_lp':   14'684             8         51        96'450        764          2'589      1'243      37'549       23'427     41'908        0           0     174'361     652'546     314'909
         'no_lp':   92'540             9        156    11'323'230     62'780        475'649    209'581      36'273       48'473    262'277        0           0  26'192'116  86'423'042  38'763'288

Lp stats         Component  Iterations  AddedCuts  OPTIMAL  DUAL_F.  DUAL_U.
  'default_lp':          1  66'906'570    161'731  699'708        1  420'796
      'max_lp':          1  29'445'349    191'326   96'444  276'001   76'683

Lp dimension        Final dimension of first component
  'default_lp':    250 rows, 347 columns, 2490 entries
      'max_lp':  1454 rows, 506 columns, 29318 entries

Lp debug         CutPropag  CutEqPropag   Adjust  Overflow        Bad  BadScaling
  'default_lp':          0          136  420'795         0  4'654'587           0
      'max_lp':          0          317   76'680         0  5'869'035           0

Lp pool          Constraints  Updates  Simplif  Merged  Shortened  Split  Strengthened        Cuts/Call
  'default_lp':       10'501   24'701    9'752       0     10'014    298            54  161'731/199'606
      'max_lp':       12'537   56'672    7'423       5      7'795    428         4'251  191'326/277'220

Lp Cut            default_lp   max_lp
          CG_FF:       1'620      151
           CG_K:         899       16
          CG_KL:         838        1
           CG_R:       1'663       83
          CG_RB:          18        -
         CG_RBP:           9        -
         Clique:           -      562
             IB:         117       14
       MIR_1_FF:       1'095    1'613
        MIR_1_K:         201       68
       MIR_1_KL:         795      132
        MIR_1_R:         997    1'155
       MIR_1_RB:           -        4
      MIR_1_RBP:           1        -
      MIR_1_RLT:           -   18'014
       MIR_2_FF:       1'790    2'207
        MIR_2_K:         370      509
       MIR_2_KL:         902      280
        MIR_2_R:       1'876    2'288
       MIR_2_RB:           7        4
      MIR_2_RBP:          15        -
       MIR_3_FF:         765      512
        MIR_3_K:         135      101
       MIR_3_KL:         305       63
        MIR_3_R:         752      738
       MIR_3_RB:           8        5
      MIR_3_RBP:          12        1
       MIR_4_FF:         288      189
        MIR_4_K:          55       45
       MIR_4_KL:          80       15
        MIR_4_R:         382      587
       MIR_4_RB:           7        3
      MIR_4_RBP:           9        2
       MIR_5_FF:         103       87
        MIR_5_K:          29       34
       MIR_5_KL:          21        3
        MIR_5_R:         229      571
       MIR_5_RB:           9        3
      MIR_5_RBP:          10        -
       MIR_6_FF:          59       47
        MIR_6_K:          12       27
       MIR_6_KL:           5        -
        MIR_6_R:         162      612
       MIR_6_RB:           5        -
      MIR_6_RBP:           4        -
   ZERO_HALF_FF:         780      893
    ZERO_HALF_K:         191       87
   ZERO_HALF_KL:         237        9
    ZERO_HALF_R:     143'794  159'425
   ZERO_HALF_RB:          36        5
  ZERO_HALF_RBP:          34      161

LNS stats       Improv/Calls  Closed  Difficulty  TimeLimit
  'rins/rens':   25596/25596     50%    7.62e-01       0.10

LS stats                                    Batches  Restarts/Perturbs    LinMoves    GenMoves  CompoundMoves   Bactracks  WeightUpdates  ScoreComputed
                             'fj_restart':    1'465                284  45'863'020           0              0           0     36'658'341     55'606'470
                    'fj_restart_compound':      836                264           0   9'167'721        622'956   4'271'830         20'587    149'106'461
                'fj_restart_compound_obj':    1'157                248           0  12'960'843        650'416   6'154'740         33'620    206'851'990
            'fj_restart_compound_perturb':    1'686                244           0  18'865'342        664'632   9'099'835         60'408    303'314'127
        'fj_restart_compound_perturb_obj':    2'344                237           0  26'235'234        755'310  12'739'501         92'199    422'986'346
                       'fj_restart_decay':      860                262  27'481'951           0              0           0      1'137'714     12'798'568
              'fj_restart_decay_compound':    1'543                275           0  19'213'693      3'156'936   8'027'726         20'030    280'213'011
          'fj_restart_decay_compound_obj':    1'133                246           0  13'926'455      2'296'377   5'814'498         14'850    205'508'578
      'fj_restart_decay_compound_perturb':    1'079                244           0  13'146'877      2'167'676   5'489'013         14'043    195'631'385
  'fj_restart_decay_compound_perturb_obj':    1'096                213           0  13'605'382      2'230'829   5'686'821         14'283    198'756'497
                   'fj_restart_decay_obj':      943                222  30'142'413           0              0           0      1'246'283     14'040'701
               'fj_restart_decay_perturb':      719                241  22'967'755           0              0           0        950'263     10'692'224
           'fj_restart_decay_perturb_obj':    1'417                233  45'289'094           0              0           0      1'873'969     21'117'346
                         'fj_restart_obj':      943                243  29'758'928           0              0           0     22'939'458     34'794'804
                     'fj_restart_perturb':    1'558                250  48'891'293           0              0           0     39'567'924     59'904'806
                 'fj_restart_perturb_obj':    1'217                261  38'673'906           0              0           0     30'923'371     46'667'034

Solution repositories    Added  Queried  Synchro
    'alternative_path':      0        0        0
      'best_solutions':      0        0        0
   'fj solution hints':  3'959        0    3'959
        'lp solutions':  3'510   25'597    3'509
                'pump':      0        0

Improving bounds shared    Num  Sym
            'default_lp':    4    0
                'max_lp':    3    0
                 'no_lp':   61    0

Clauses shared    #Exported  #Imported  #BinaryRead  #BinaryTotal
   'default_lp':      5'703    118'397          976         1'120
       'max_lp':      7'139    116'738          966         1'120
        'no_lp':    115'854     13'873        1'120         1'120

LRAT_status: NA
CpSolverResponse summary:
status: INFEASIBLE
objective: NA
best_bound: NA
integers: 359
booleans: 502
conflicts: 38763288
branches: 49542529
propagations: 3274455130
integer_propagations: 846813079
restarts: 124654
lp_iterations: 0
walltime: 5531.54
usertime: 5531.54
deterministic_time: 26871.3
gap_integral: 0

{
  "board_size": 22,
  "parity_proved": 0,
  "target": 34,
  "child_id": 1012,
  "child_count": 2640,
  "partition": "unknown_pair_x_diag_plus_twos_x_diag_minus_twos",
  "build_seconds": 0.08672070503234863,
  "workers": 4,
  "requested_seed": 2026073212,
  "effective_seed": 2026073212,
  "main_diagonal_pair": [
    2,
    15
  ],
  "pair_index": 52,
  "diag_plus_twos": 16,
  "diag_minus_twos": 16,
  "pair_excess": 3,
  "residual_certificate_slack": 109,
  "analytic_minimum_line_defect": 24,
  "analytic_defect_details": {
    "row_costs": {
      "12": 6,
      "13": 3,
      "14": 0,
      "15": 0,
      "16": 0,
      "17": 0
    },
    "column_costs": {
      "12": 6,
      "13": 3,
      "14": 0,
      "15": 0,
      "16": 0,
      "17": 0
    },
    "plus_cost": 24,
    "minus_cost": 0,
    "row_column_minimum": 0
  },
  "maximal_line_constraints": 2455,
  "analytic_infeasible": false,
  "allowed_points": 242,
  "status": "INFEASIBLE",
  "proof_method": "cp_sat_all_lines_with_certificate_profile_cuts",
  "elapsed_seconds": 5531.536031246185,
  "branches": 49542529,
  "conflicts": 38763288
}
